2025-10-20 23:10:45,475 - INFO - 📌 第一个 epoch：默认所有模块使用 checkpoint
2025-10-20 23:10:49,385 - INFO - Epoch 1 completed in 3.926716 seconds
2025-10-20 23:10:50,592 - INFO - torch.cuda.max_memory_reserved() : 4.37890625
2025-10-20 23:10:53,631 - INFO - 
[🔁 拟合反向传播时间模型]
2025-10-20 23:10:53,631 - INFO - 总反向传播时间: 3.021086s
2025-10-20 23:10:53,631 - INFO - 拟合模型: backward_total ≈ 2 × (A + B) + b
2025-10-20 23:10:53,631 - INFO - A = 2.344354, B = 0.256500, b = 0.420232s
2025-10-20 23:10:53,681 - INFO - Set parameter LicenseID to value 2706656
2025-10-20 23:10:53,688 - INFO - Set parameter LogToConsole to value 1
2025-10-20 23:10:53,689 - INFO - Set parameter LogFile to value ""
2025-10-20 23:10:53,689 - INFO - Set parameter Threads to value 12
2025-10-20 23:10:53,689 - INFO - Set parameter TimeLimit to value 3600
2025-10-20 23:10:53,689 - INFO - Set parameter OptimalityTol to value 0.0001
2025-10-20 23:10:53,689 - INFO - Set parameter IntFeasTol to value 1e-05
2025-10-20 23:10:53,689 - INFO - Set parameter StartNodeLimit to value 10000000
2025-10-20 23:10:53,758 - INFO - Set parameter TimeLimit to value 3600
2025-10-20 23:10:53,758 - INFO - 
2025-10-20 23:10:53,758 - INFO - 
2025-10-20 23:10:53,758 - INFO - Restarting solve
2025-10-20 23:10:53,758 - INFO - 
2025-10-20 23:10:53,758 - INFO - 
2025-10-20 23:10:53,760 - INFO - Gurobi Optimizer version 12.0.3 build v12.0.3rc0 (linux64 - "Ubuntu 20.04.6 LTS")
2025-10-20 23:10:53,760 - INFO - 
2025-10-20 23:10:53,760 - INFO - CPU model: Intel(R) Xeon(R) Platinum 8260 CPU @ 2.40GHz, instruction set [SSE2|AVX|AVX2|AVX512]
2025-10-20 23:10:53,760 - INFO - Thread count: 48 physical cores, 96 logical processors, using up to 12 threads
2025-10-20 23:10:53,760 - INFO - 
2025-10-20 23:10:53,760 - INFO - Non-default parameters:
2025-10-20 23:10:53,760 - INFO - TimeLimit  3600
2025-10-20 23:10:53,760 - INFO - OptimalityTol  0.0001
2025-10-20 23:10:53,760 - INFO - StartNodeLimit  10000000
2025-10-20 23:10:53,760 - INFO - Threads  12
2025-10-20 23:10:53,761 - INFO - 
2025-10-20 23:10:53,761 - INFO - Optimize a model with 5603 rows, 3584 columns and 15200 nonzeros
2025-10-20 23:10:53,761 - INFO - Model fingerprint: 0xf351e1bf
2025-10-20 23:10:53,761 - INFO - Variable types: 1024 continuous, 2560 integer (2560 binary)
2025-10-20 23:10:53,761 - INFO - Coefficient statistics:
2025-10-20 23:10:53,761 - INFO -   Matrix range     [1e+00, 2e+15]
2025-10-20 23:10:53,761 - INFO -   Objective range  [7e+04, 6e+05]
2025-10-20 23:10:53,761 - INFO -   Bounds range     [1e+00, 1e+15]
2025-10-20 23:10:53,761 - INFO -   RHS range        [1e+00, 1e+15]
2025-10-20 23:10:53,761 - INFO - Warning: Model contains large matrix coefficient range
2025-10-20 23:10:53,761 - INFO - Warning: Model contains large rhs
2025-10-20 23:10:53,761 - INFO - Warning: Model contains large bounds
2025-10-20 23:10:53,761 - INFO -          Consider reformulating model or setting NumericFocus parameter
2025-10-20 23:10:53,761 - INFO -          to avoid numerical issues.
2025-10-20 23:10:53,765 - INFO - Presolve removed 4269 rows and 2004 columns
2025-10-20 23:10:53,766 - INFO - Presolve time: 0.00s
2025-10-20 23:10:53,766 - INFO - 
2025-10-20 23:10:53,766 - INFO - Explored 0 nodes (0 simplex iterations) in 0.01 seconds (0.00 work units)
2025-10-20 23:10:53,766 - INFO - Thread count was 1 (of 96 available processors)
2025-10-20 23:10:53,766 - INFO - 
2025-10-20 23:10:53,766 - INFO - Solution count 0
2025-10-20 23:10:53,766 - INFO - 
2025-10-20 23:10:53,766 - INFO - Model is infeasible
2025-10-20 23:10:53,766 - INFO - Best objective -, best bound -, gap -
2025-10-20 23:10:53,766 - ERROR - Infeasible model, check constraints carefully. Insufficient memory?
Traceback (most recent call last):
  File "/data/user_lixiongfei/csl_hyc/solver/checkmate_solver.py", line 356, in solve_ilp_gurobi
    solution = ilpsolver.solve()
  File "/data/user_lixiongfei/csl_hyc/solver/checkmate_solver.py", line 268, in solve
    raise ValueError("Infeasible model, check constraints carefully. Insufficient memory?")
ValueError: Infeasible model, check constraints carefully. Insufficient memory?
2025-10-21 10:02:06,681 - INFO - 📌 第一个 epoch：默认所有模块使用 checkpoint
2025-10-21 10:02:10,143 - INFO - Epoch 1 completed in 3.469154 seconds
2025-10-21 10:02:11,205 - INFO - torch.cuda.max_memory_reserved() : 4.37890625
2025-10-21 10:02:14,083 - INFO - 
[🔁 拟合反向传播时间模型]
2025-10-21 10:02:14,084 - INFO - 总反向传播时间: 2.860144s
2025-10-21 10:02:14,084 - INFO - 拟合模型: backward_total ≈ 2 × (A + B) + b
2025-10-21 10:02:14,084 - INFO - A = 2.071308, B = 0.201681, b = 0.587154s
2025-10-21 10:02:14,108 - INFO - Set parameter LicenseID to value 2706656
2025-10-21 10:02:14,135 - INFO - Set parameter LogToConsole to value 1
2025-10-21 10:02:14,135 - INFO - Set parameter LogFile to value ""
2025-10-21 10:02:14,135 - INFO - Set parameter Threads to value 12
2025-10-21 10:02:14,135 - INFO - Set parameter TimeLimit to value 3600
2025-10-21 10:02:14,135 - INFO - Set parameter OptimalityTol to value 0.0001
2025-10-21 10:02:14,135 - INFO - Set parameter IntFeasTol to value 1e-05
2025-10-21 10:02:14,136 - INFO - Set parameter StartNodeLimit to value 10000000
2025-10-21 10:02:14,190 - INFO - Set parameter TimeLimit to value 3600
2025-10-21 10:02:14,190 - INFO - 
2025-10-21 10:02:14,190 - INFO - 
2025-10-21 10:02:14,190 - INFO - Restarting solve
2025-10-21 10:02:14,190 - INFO - 
2025-10-21 10:02:14,190 - INFO - 
2025-10-21 10:02:14,192 - INFO - Gurobi Optimizer version 12.0.3 build v12.0.3rc0 (linux64 - "Ubuntu 20.04.6 LTS")
2025-10-21 10:02:14,192 - INFO - 
2025-10-21 10:02:14,192 - INFO - CPU model: Intel(R) Xeon(R) Platinum 8260 CPU @ 2.40GHz, instruction set [SSE2|AVX|AVX2|AVX512]
2025-10-21 10:02:14,192 - INFO - Thread count: 48 physical cores, 96 logical processors, using up to 12 threads
2025-10-21 10:02:14,192 - INFO - 
2025-10-21 10:02:14,192 - INFO - Non-default parameters:
2025-10-21 10:02:14,192 - INFO - TimeLimit  3600
2025-10-21 10:02:14,192 - INFO - OptimalityTol  0.0001
2025-10-21 10:02:14,192 - INFO - StartNodeLimit  10000000
2025-10-21 10:02:14,192 - INFO - Threads  12
2025-10-21 10:02:14,192 - INFO - 
2025-10-21 10:02:14,192 - INFO - Optimize a model with 5603 rows, 3584 columns and 15200 nonzeros
2025-10-21 10:02:14,193 - INFO - Model fingerprint: 0x4edd3f09
2025-10-21 10:02:14,193 - INFO - Variable types: 1024 continuous, 2560 integer (2560 binary)
2025-10-21 10:02:14,193 - INFO - Coefficient statistics:
2025-10-21 10:02:14,193 - INFO -   Matrix range     [1e+00, 2e+15]
2025-10-21 10:02:14,193 - INFO -   Objective range  [6e+04, 5e+05]
2025-10-21 10:02:14,193 - INFO -   Bounds range     [1e+00, 1e+15]
2025-10-21 10:02:14,193 - INFO -   RHS range        [1e+00, 1e+15]
2025-10-21 10:02:14,193 - INFO - Warning: Model contains large matrix coefficient range
2025-10-21 10:02:14,193 - INFO - Warning: Model contains large rhs
2025-10-21 10:02:14,193 - INFO - Warning: Model contains large bounds
2025-10-21 10:02:14,193 - INFO -          Consider reformulating model or setting NumericFocus parameter
2025-10-21 10:02:14,193 - INFO -          to avoid numerical issues.
2025-10-21 10:02:14,195 - INFO - Presolve removed 4269 rows and 2004 columns
2025-10-21 10:02:14,195 - INFO - Presolve time: 0.00s
2025-10-21 10:02:14,195 - INFO - 
2025-10-21 10:02:14,195 - INFO - Explored 0 nodes (0 simplex iterations) in 0.00 seconds (0.00 work units)
2025-10-21 10:02:14,196 - INFO - Thread count was 1 (of 96 available processors)
2025-10-21 10:02:14,196 - INFO - 
2025-10-21 10:02:14,196 - INFO - Solution count 0
2025-10-21 10:02:14,196 - INFO - 
2025-10-21 10:02:14,196 - INFO - Model is infeasible
2025-10-21 10:02:14,196 - INFO - Best objective -, best bound -, gap -
2025-10-21 10:02:14,196 - ERROR - Infeasible model, check constraints carefully. Insufficient memory?
Traceback (most recent call last):
  File "/data/user_lixiongfei/csl_hyc/solver/checkmate_solver.py", line 356, in solve_ilp_gurobi
    solution = ilpsolver.solve()
  File "/data/user_lixiongfei/csl_hyc/solver/checkmate_solver.py", line 268, in solve
    raise ValueError("Infeasible model, check constraints carefully. Insufficient memory?")
ValueError: Infeasible model, check constraints carefully. Insufficient memory?
